p cnf 250 1774
1 2 3 4 5 0
6 7 8 9 10 0
11 12 13 14 15 0
16 17 18 19 20 0
21 22 23 24 25 0
26 27 28 29 30 0
31 32 33 34 35 0
36 37 38 39 40 0
41 42 43 44 45 0
46 47 48 49 50 0
51 52 53 54 55 0
56 57 58 59 60 0
61 62 63 64 65 0
66 67 68 69 70 0
71 72 73 74 75 0
76 77 78 79 80 0
81 82 83 84 85 0
86 87 88 89 90 0
91 92 93 94 95 0
96 97 98 99 100 0
101 102 103 104 105 0
106 107 108 109 110 0
111 112 113 114 115 0
116 117 118 119 120 0
121 122 123 124 125 0
126 127 128 129 130 0
131 132 133 134 135 0
136 137 138 139 140 0
141 142 143 144 145 0
146 147 148 149 150 0
151 152 153 154 155 0
156 157 158 159 160 0
161 162 163 164 165 0
166 167 168 169 170 0
171 172 173 174 175 0
176 177 178 179 180 0
181 182 183 184 185 0
186 187 188 189 190 0
191 192 193 194 195 0
196 197 198 199 200 0
201 202 203 204 205 0
206 207 208 209 210 0
211 212 213 214 215 0
216 217 218 219 220 0
221 222 223 224 225 0
226 227 228 229 230 0
231 232 233 234 235 0
236 237 238 239 240 0
241 242 243 244 245 0
246 247 248 249 250 0
-1 -2 0
-1 -3 0
-1 -4 0
-1 -5 0
-2 -3 0
-2 -4 0
-2 -5 0
-3 -4 0
-3 -5 0
-4 -5 0
-6 -7 0
-6 -8 0
-6 -9 0
-6 -10 0
-7 -8 0
-7 -9 0
-7 -10 0
-8 -9 0
-8 -10 0
-9 -10 0
-11 -12 0
-11 -13 0
-11 -14 0
-11 -15 0
-12 -13 0
-12 -14 0
-12 -15 0
-13 -14 0
-13 -15 0
-14 -15 0
-16 -17 0
-16 -18 0
-16 -19 0
-16 -20 0
-17 -18 0
-17 -19 0
-17 -20 0
-18 -19 0
-18 -20 0
-19 -20 0
-21 -22 0
-21 -23 0
-21 -24 0
-21 -25 0
-22 -23 0
-22 -24 0
-22 -25 0
-23 -24 0
-23 -25 0
-24 -25 0
-26 -27 0
-26 -28 0
-26 -29 0
-26 -30 0
-27 -28 0
-27 -29 0
-27 -30 0
-28 -29 0
-28 -30 0
-29 -30 0
-31 -32 0
-31 -33 0
-31 -34 0
-31 -35 0
-32 -33 0
-32 -34 0
-32 -35 0
-33 -34 0
-33 -35 0
-34 -35 0
-36 -37 0
-36 -38 0
-36 -39 0
-36 -40 0
-37 -38 0
-37 -39 0
-37 -40 0
-38 -39 0
-38 -40 0
-39 -40 0
-41 -42 0
-41 -43 0
-41 -44 0
-41 -45 0
-42 -43 0
-42 -44 0
-42 -45 0
-43 -44 0
-43 -45 0
-44 -45 0
-46 -47 0
-46 -48 0
-46 -49 0
-46 -50 0
-47 -48 0
-47 -49 0
-47 -50 0
-48 -49 0
-48 -50 0
-49 -50 0
-51 -52 0
-51 -53 0
-51 -54 0
-51 -55 0
-52 -53 0
-52 -54 0
-52 -55 0
-53 -54 0
-53 -55 0
-54 -55 0
-56 -57 0
-56 -58 0
-56 -59 0
-56 -60 0
-57 -58 0
-57 -59 0
-57 -60 0
-58 -59 0
-58 -60 0
-59 -60 0
-61 -62 0
-61 -63 0
-61 -64 0
-61 -65 0
-62 -63 0
-62 -64 0
-62 -65 0
-63 -64 0
-63 -65 0
-64 -65 0
-66 -67 0
-66 -68 0
-66 -69 0
-66 -70 0
-67 -68 0
-67 -69 0
-67 -70 0
-68 -69 0
-68 -70 0
-69 -70 0
-71 -72 0
-71 -73 0
-71 -74 0
-71 -75 0
-72 -73 0
-72 -74 0
-72 -75 0
-73 -74 0
-73 -75 0
-74 -75 0
-76 -77 0
-76 -78 0
-76 -79 0
-76 -80 0
-77 -78 0
-77 -79 0
-77 -80 0
-78 -79 0
-78 -80 0
-79 -80 0
-81 -82 0
-81 -83 0
-81 -84 0
-81 -85 0
-82 -83 0
-82 -84 0
-82 -85 0
-83 -84 0
-83 -85 0
-84 -85 0
-86 -87 0
-86 -88 0
-86 -89 0
-86 -90 0
-87 -88 0
-87 -89 0
-87 -90 0
-88 -89 0
-88 -90 0
-89 -90 0
-91 -92 0
-91 -93 0
-91 -94 0
-91 -95 0
-92 -93 0
-92 -94 0
-92 -95 0
-93 -94 0
-93 -95 0
-94 -95 0
-96 -97 0
-96 -98 0
-96 -99 0
-96 -100 0
-97 -98 0
-97 -99 0
-97 -100 0
-98 -99 0
-98 -100 0
-99 -100 0
-101 -102 0
-101 -103 0
-101 -104 0
-101 -105 0
-102 -103 0
-102 -104 0
-102 -105 0
-103 -104 0
-103 -105 0
-104 -105 0
-106 -107 0
-106 -108 0
-106 -109 0
-106 -110 0
-107 -108 0
-107 -109 0
-107 -110 0
-108 -109 0
-108 -110 0
-109 -110 0
-111 -112 0
-111 -113 0
-111 -114 0
-111 -115 0
-112 -113 0
-112 -114 0
-112 -115 0
-113 -114 0
-113 -115 0
-114 -115 0
-116 -117 0
-116 -118 0
-116 -119 0
-116 -120 0
-117 -118 0
-117 -119 0
-117 -120 0
-118 -119 0
-118 -120 0
-119 -120 0
-121 -122 0
-121 -123 0
-121 -124 0
-121 -125 0
-122 -123 0
-122 -124 0
-122 -125 0
-123 -124 0
-123 -125 0
-124 -125 0
-126 -127 0
-126 -128 0
-126 -129 0
-126 -130 0
-127 -128 0
-127 -129 0
-127 -130 0
-128 -129 0
-128 -130 0
-129 -130 0
-131 -132 0
-131 -133 0
-131 -134 0
-131 -135 0
-132 -133 0
-132 -134 0
-132 -135 0
-133 -134 0
-133 -135 0
-134 -135 0
-136 -137 0
-136 -138 0
-136 -139 0
-136 -140 0
-137 -138 0
-137 -139 0
-137 -140 0
-138 -139 0
-138 -140 0
-139 -140 0
-141 -142 0
-141 -143 0
-141 -144 0
-141 -145 0
-142 -143 0
-142 -144 0
-142 -145 0
-143 -144 0
-143 -145 0
-144 -145 0
-146 -147 0
-146 -148 0
-146 -149 0
-146 -150 0
-147 -148 0
-147 -149 0
-147 -150 0
-148 -149 0
-148 -150 0
-149 -150 0
-151 -152 0
-151 -153 0
-151 -154 0
-151 -155 0
-152 -153 0
-152 -154 0
-152 -155 0
-153 -154 0
-153 -155 0
-154 -155 0
-156 -157 0
-156 -158 0
-156 -159 0
-156 -160 0
-157 -158 0
-157 -159 0
-157 -160 0
-158 -159 0
-158 -160 0
-159 -160 0
-161 -162 0
-161 -163 0
-161 -164 0
-161 -165 0
-162 -163 0
-162 -164 0
-162 -165 0
-163 -164 0
-163 -165 0
-164 -165 0
-166 -167 0
-166 -168 0
-166 -169 0
-166 -170 0
-167 -168 0
-167 -169 0
-167 -170 0
-168 -169 0
-168 -170 0
-169 -170 0
-171 -172 0
-171 -173 0
-171 -174 0
-171 -175 0
-172 -173 0
-172 -174 0
-172 -175 0
-173 -174 0
-173 -175 0
-174 -175 0
-176 -177 0
-176 -178 0
-176 -179 0
-176 -180 0
-177 -178 0
-177 -179 0
-177 -180 0
-178 -179 0
-178 -180 0
-179 -180 0
-181 -182 0
-181 -183 0
-181 -184 0
-181 -185 0
-182 -183 0
-182 -184 0
-182 -185 0
-183 -184 0
-183 -185 0
-184 -185 0
-186 -187 0
-186 -188 0
-186 -189 0
-186 -190 0
-187 -188 0
-187 -189 0
-187 -190 0
-188 -189 0
-188 -190 0
-189 -190 0
-191 -192 0
-191 -193 0
-191 -194 0
-191 -195 0
-192 -193 0
-192 -194 0
-192 -195 0
-193 -194 0
-193 -195 0
-194 -195 0
-196 -197 0
-196 -198 0
-196 -199 0
-196 -200 0
-197 -198 0
-197 -199 0
-197 -200 0
-198 -199 0
-198 -200 0
-199 -200 0
-201 -202 0
-201 -203 0
-201 -204 0
-201 -205 0
-202 -203 0
-202 -204 0
-202 -205 0
-203 -204 0
-203 -205 0
-204 -205 0
-206 -207 0
-206 -208 0
-206 -209 0
-206 -210 0
-207 -208 0
-207 -209 0
-207 -210 0
-208 -209 0
-208 -210 0
-209 -210 0
-211 -212 0
-211 -213 0
-211 -214 0
-211 -215 0
-212 -213 0
-212 -214 0
-212 -215 0
-213 -214 0
-213 -215 0
-214 -215 0
-216 -217 0
-216 -218 0
-216 -219 0
-216 -220 0
-217 -218 0
-217 -219 0
-217 -220 0
-218 -219 0
-218 -220 0
-219 -220 0
-221 -222 0
-221 -223 0
-221 -224 0
-221 -225 0
-222 -223 0
-222 -224 0
-222 -225 0
-223 -224 0
-223 -225 0
-224 -225 0
-226 -227 0
-226 -228 0
-226 -229 0
-226 -230 0
-227 -228 0
-227 -229 0
-227 -230 0
-228 -229 0
-228 -230 0
-229 -230 0
-231 -232 0
-231 -233 0
-231 -234 0
-231 -235 0
-232 -233 0
-232 -234 0
-232 -235 0
-233 -234 0
-233 -235 0
-234 -235 0
-236 -237 0
-236 -238 0
-236 -239 0
-236 -240 0
-237 -238 0
-237 -239 0
-237 -240 0
-238 -239 0
-238 -240 0
-239 -240 0
-241 -242 0
-241 -243 0
-241 -244 0
-241 -245 0
-242 -243 0
-242 -244 0
-242 -245 0
-243 -244 0
-243 -245 0
-244 -245 0
-246 -247 0
-246 -248 0
-246 -249 0
-246 -250 0
-247 -248 0
-247 -249 0
-247 -250 0
-248 -249 0
-248 -250 0
-249 -250 0
-5 -36 0
-1 -37 0
-3 -50 0
-3 -47 0
-1 -51 0
-1 -55 0
-5 -58 0
-1 -57 0
-4 -65 0
-1 -61 0
-1 -69 0
-3 -66 0
-2 -103 0
-4 -103 0
-5 -109 0
-3 -109 0
-1 -115 0
-4 -113 0
-3 -120 0
-5 -119 0
-1 -125 0
-2 -123 0
-4 -154 0
-2 -154 0
-5 -164 0
-4 -162 0
-5 -170 0
-3 -166 0
-1 -177 0
-3 -176 0
-3 -181 0
-3 -183 0
-1 -187 0
-5 -187 0
-3 -194 0
-5 -193 0
-3 -198 0
-2 -196 0
-2 -203 0
-5 -205 0
-3 -211 0
-1 -213 0
-1 -216 0
-5 -218 0
-2 -230 0
-3 -230 0
-4 -233 0
-5 -235 0
-3 -239 0
-2 -239 0
-1 -243 0
-2 -245 0
-7 -24 0
-9 -25 0
-8 -26 0
-9 -26 0
-7 -39 0
-7 -37 0
-7 -41 0
-8 -44 0
-6 -47 0
-7 -46 0
-8 -54 0
-10 -53 0
-7 -56 0
-6 -58 0
-7 -66 0
-9 -69 0
-8 -104 0
-7 -104 0
-7 -123 0
-6 -123 0
-8 -128 0
-9 -128 0
-7 -142 0
-6 -143 0
-7 -169 0
-9 -167 0
-6 -171 0
-8 -171 0
-9 -183 0
-6 -184 0
-9 -205 0
-8 -201 0
-10 -228 0
-10 -227 0
-7 -239 0
-9 -239 0
-7 -248 0
-7 -249 0
-15 -18 0
-12 -20 0
-11 -25 0
-13 -22 0
-13 -33 0
-11 -35 0
-13 -40 0
-12 -40 0
-11 -42 0
-15 -45 0
-13 -50 0
-11 -48 0
-11 -52 0
-13 -54 0
-11 -58 0
-14 -57 0
-15 -64 0
-13 -62 0
-11 -73 0
-12 -72 0
-14 -77 0
-13 -78 0
-11 -86 0
-12 -89 0
-11 -93 0
-11 -95 0
-14 -97 0
-13 -98 0
-13 -101 0
-13 -104 0
-13 -120 0
-12 -117 0
-12 -124 0
-12 -121 0
-12 -130 0
-14 -126 0
-13 -136 0
-13 -138 0
-11 -145 0
-12 -142 0
-12 -169 0
-15 -169 0
-13 -175 0
-14 -174 0
-13 -184 0
-11 -185 0
-13 -193 0
-12 -191 0
-13 -199 0
-11 -198 0
-14 -205 0
-14 -203 0
-11 -208 0
-12 -206 0
-13 -213 0
-13 -215 0
-14 -216 0
-13 -220 0
-12 -235 0
-15 -232 0
-11 -237 0
-11 -240 0
-14 -245 0
-13 -243 0
-11 -246 0
-14 -246 0
-18 -29 0
-18 -26 0
-19 -33 0
-20 -35 0
-16 -36 0
-20 -38 0
-20 -44 0
-20 -45 0
-18 -51 0
-20 -51 0
-18 -57 0
-17 -56 0
-16 -70 0
-19 -70 0
-16 -75 0
-18 -74 0
-19 -94 0
-16 -94 0
-18 -102 0
-20 -101 0
-16 -107 0
-17 -107 0
-20 -118 0
-20 -120 0
-16 -121 0
-20 -123 0
-17 -131 0
-19 -133 0
-18 -138 0
-17 -139 0
-16 -148 0
-19 -146 0
-16 -153 0
-17 -153 0
-19 -165 0
-17 -161 0
-16 -181 0
-19 -184 0
-17 -202 0
-20 -203 0
-17 -215 0
-16 -213 0
-19 -218 0
-17 -220 0
-20 -239 0
-19 -238 0
-17 -241 0
-18 -241 0
-21 -27 0
-21 -29 0
-22 -35 0
-25 -32 0
-25 -42 0
-22 -45 0
-22 -46 0
-21 -48 0
-22 -72 0
-25 -75 0
-21 -80 0
-23 -78 0
-23 -87 0
-23 -90 0
-21 -99 0
-24 -96 0
-25 -102 0
-23 -102 0
-21 -109 0
-23 -108 0
-24 -114 0
-22 -113 0
-21 -124 0
-22 -125 0
-21 -135 0
-24 -135 0
-24 -137 0
-25 -138 0
-22 -143 0
-22 -144 0
-25 -153 0
-22 -153 0
-23 -156 0
-24 -156 0
-21 -165 0
-21 -164 0
-25 -169 0
-24 -169 0
-25 -182 0
-23 -184 0
-22 -192 0
-24 -191 0
-25 -222 0
-22 -225 0
-24 -235 0
-24 -233 0
-21 -245 0
-22 -245 0
-30 -53 0
-27 -53 0
-26 -63 0
-26 -61 0
-29 -68 0
-27 -70 0
-30 -79 0
-30 -78 0
-27 -83 0
-27 -82 0
-30 -93 0
-27 -94 0
-28 -105 0
-27 -103 0
-27 -114 0
-29 -115 0
-29 -122 0
-28 -122 0
-26 -144 0
-26 -145 0
-26 -146 0
-27 -147 0
-28 -159 0
-27 -156 0
-29 -163 0
-29 -164 0
-28 -168 0
-26 -169 0
-29 -184 0
-27 -185 0
-29 -197 0
-26 -197 0
-29 -205 0
-29 -202 0
-30 -214 0
-26 -212 0
-28 -218 0
-29 -220 0
-28 -225 0
-28 -221 0
-27 -234 0
-26 -231 0
-29 -239 0
-29 -240 0
-28 -245 0
-27 -245 0
-31 -37 0
-34 -40 0
-32 -48 0
-34 -50 0
-35 -58 0
-33 -56 0
-32 -67 0
-31 -66 0
-35 -74 0
-35 -73 0
-33 -84 0
-35 -81 0
-32 -92 0
-32 -95 0
-31 -97 0
-35 -97 0
-32 -115 0
-32 -113 0
-32 -119 0
-31 -117 0
-31 -159 0
-32 -157 0
-31 -167 0
-35 -167 0
-32 -175 0
-31 -174 0
-35 -193 0
-32 -191 0
-34 -198 0
-35 -197 0
-33 -205 0
-31 -202 0
-34 -215 0
-34 -213 0
-34 -218 0
-32 -219 0
-31 -224 0
-31 -221 0
-35 -227 0
-34 -230 0
-32 -241 0
-35 -241 0
-40 -41 0
-36 -42 0
-40 -46 0
-36 -46 0
-36 -53 0
-36 -55 0
-37 -61 0
-37 -65 0
-36 -74 0
-38 -74 0
-36 -79 0
-38 -79 0
-36 -83 0
-37 -85 0
-40 -89 0
-40 -87 0
-39 -106 0
-38 -110 0
-40 -116 0
-39 -116 0
-38 -124 0
-38 -125 0
-39 -128 0
-38 -130 0
-37 -132 0
-39 -132 0
-40 -138 0
-36 -139 0
-37 -151 0
-37 -152 0
-40 -159 0
-40 -156 0
-39 -169 0
-39 -170 0
-37 -171 0
-40 -171 0
-37 -182 0
-39 -182 0
-37 -186 0
-37 -187 0
-37 -193 0
-40 -191 0
-39 -200 0
-40 -200 0
-37 -213 0
-36 -215 0
-36 -218 0
-39 -216 0
-40 -222 0
-38 -222 0
-37 -235 0
-39 -232 0
-38 -239 0
-37 -236 0
-38 -247 0
-38 -246 0
-42 -61 0
-43 -63 0
-41 -70 0
-42 -67 0
-42 -99 0
-41 -97 0
-43 -104 0
-42 -103 0
-44 -110 0
-44 -106 0
-41 -115 0
-41 -113 0
-43 -120 0
-42 -119 0
-44 -121 0
-45 -123 0
-44 -135 0
-43 -133 0
-43 -145 0
-44 -144 0
-42 -146 0
-44 -150 0
-41 -155 0
-41 -152 0
-42 -173 0
-41 -173 0
-45 -188 0
-42 -188 0
-43 -192 0
-43 -195 0
-42 -197 0
-42 -200 0
-44 -203 0
-43 -202 0
-44 -233 0
-44 -232 0
-50 -55 0
-49 -54 0
-48 -61 0
-47 -65 0
-46 -79 0
-50 -79 0
-49 -85 0
-49 -81 0
-49 -89 0
-49 -86 0
-46 -95 0
-50 -91 0
-47 -117 0
-47 -116 0
-47 -122 0
-49 -121 0
-46 -127 0
-47 -128 0
-48 -132 0
-46 -131 0
-48 -141 0
-47 -141 0
-50 -149 0
-48 -150 0
-46 -157 0
-46 -158 0
-50 -163 0
-48 -163 0
-49 -170 0
-48 -168 0
-50 -176 0
-50 -178 0
-46 -181 0
-48 -181 0
-48 -189 0
-48 -190 0
-47 -217 0
-47 -218 0
-49 -224 0
-46 -224 0
-46 -230 0
-46 -228 0
-49 -243 0
-49 -245 0
-53 -65 0
-55 -61 0
-54 -82 0
-51 -83 0
-54 -92 0
-52 -92 0
-54 -98 0
-55 -97 0
-54 -104 0
-52 -102 0
-52 -114 0
-55 -115 0
-51 -116 0
-54 -118 0
-54 -122 0
-52 -124 0
-52 -132 0
-52 -135 0
-51 -139 0
-51 -140 0
-51 -146 0
-53 -146 0
-53 -151 0
-51 -152 0
-52 -160 0
-51 -160 0
-51 -170 0
-52 -168 0
-53 -185 0
-52 -182 0
-54 -194 0
-51 -193 0
-52 -214 0
-54 -215 0
-51 -221 0
-54 -222 0
-55 -240 0
-51 -237 0
-59 -61 0
-56 -62 0
-58 -67 0
-56 -68 0
-57 -75 0
-60 -74 0
-58 -82 0
-57 -85 0
-59 -93 0
-58 -92 0
-58 -110 0
-56 -108 0
-60 -129 0
-56 -128 0
-56 -141 0
-56 -142 0
-56 -148 0
-59 -148 0
-58 -155 0
-59 -154 0
-58 -162 0
-58 -165 0
-56 -174 0
-58 -174 0
-59 -188 0
-57 -188 0
-60 -212 0
-56 -212 0
-56 -220 0
-58 -220 0
-56 -229 0
-58 -230 0
-56 -249 0
-56 -247 0
-64 -80 0
-62 -77 0
-63 -90 0
-64 -88 0
-61 -99 0
-65 -100 0
-61 -105 0
-64 -105 0
-65 -112 0
-62 -112 0
-64 -120 0
-61 -116 0
-63 -129 0
-61 -126 0
-64 -131 0
-62 -131 0
-61 -144 0
-63 -145 0
-63 -154 0
-62 -154 0
-64 -161 0
-62 -164 0
-62 -174 0
-61 -175 0
-61 -189 0
-65 -190 0
-61 -204 0
-62 -205 0
-61 -210 0
-65 -210 0
-64 -213 0
-62 -212 0
-65 -227 0
-64 -230 0
-61 -231 0
-63 -234 0
-62 -242 0
-63 -243 0
-65 -250 0
-61 -247 0
-69 -72 0
-68 -72 0
-66 -92 0
-67 -92 0
-70 -124 0
-66 -123 0
-66 -134 0
-70 -134 0
-69 -144 0
-70 -144 0
-68 -158 0
-70 -159 0
-67 -165 0
-70 -163 0
-66 -174 0
-69 -174 0
-68 -176 0
-69 -177 0
-67 -183 0
-66 -185 0
-69 -188 0
-69 -187 0
-69 -194 0
-70 -195 0
-68 -201 0
-68 -205 0
-67 -213 0
-66 -214 0
-69 -227 0
-68 -226 0
-69 -237 0
-67 -237 0
-66 -247 0
-69 -249 0
-71 -82 0
-72 -82 0
-71 -89 0
-73 -86 0
-72 -95 0
-74 -94 0
-74 -100 0
-72 -100 0
-73 -105 0
-74 -103 0
-75 -108 0
-71 -107 0
-75 -113 0
-73 -111 0
-72 -131 0
-72 -134 0
-74 -141 0
-75 -142 0
-74 -157 0
-72 -156 0
-73 -161 0
-71 -161 0
-73 -167 0
-75 -170 0
-73 -181 0
-75 -184 0
-73 -198 0
-72 -196 0
-72 -213 0
-71 -214 0
-75 -239 0
-73 -238 0
-73 -245 0
-71 -241 0
-76 -83 0
-78 -83 0
-79 -98 0
-78 -97 0
-78 -113 0
-77 -114 0
-78 -137 0
-80 -136 0
-79 -145 0
-79 -142 0
-79 -150 0
-79 -147 0
-78 -160 0
-80 -159 0
-80 -161 0
-80 -165 0
-76 -170 0
-80 -167 0
-77 -182 0
-77 -184 0
-80 -188 0
-77 -190 0
-76 -201 0
-77 -202 0
-76 -215 0
-78 -212 0
-76 -217 0
-79 -217 0
-79 -240 0
-77 -239 0
-77 -241 0
-79 -242 0
-78 -249 0
-80 -249 0
-82 -100 0
-84 -98 0
-85 -118 0
-85 -119 0
-82 -122 0
-85 -124 0
-84 -135 0
-85 -135 0
-84 -148 0
-85 -148 0
-81 -155 0
-85 -152 0
-82 -174 0
-85 -174 0
-83 -184 0
-85 -184 0
-82 -199 0
-83 -196 0
-85 -213 0
-84 -215 0
-85 -221 0
-83 -224 0
-88 -106 0
-90 -109 0
-90 -112 0
-87 -115 0
-89 -120 0
-89 -119 0
-90 -126 0
-86 -128 0
-86 -133 0
-90 -135 0
-87 -149 0
-90 -149 0
-89 -151 0
-87 -153 0
-90 -164 0
-90 -165 0
-88 -175 0
-86 -174 0
-87 -183 0
-90 -185 0
-88 -187 0
-89 -187 0
-86 -201 0
-87 -202 0
-89 -212 0
-88 -213 0
-86 -222 0
-87 -221 0
-89 -229 0
-89 -228 0
-87 -238 0
-88 -239 0
-88 -241 0
-90 -244 0
-87 -248 0
-86 -248 0
-94 -107 0
-92 -110 0
-92 -123 0
-95 -125 0
-95 -126 0
-92 -127 0
-92 -144 0
-91 -142 0
-94 -155 0
-92 -154 0
-93 -157 0
-94 -159 0
-94 -178 0
-92 -180 0
-93 -181 0
-93 -182 0
-93 -192 0
-91 -191 0
-92 -198 0
-94 -196 0
-91 -204 0
-94 -205 0
-94 -221 0
-92 -225 0
-92 -226 0
-91 -226 0
-92 -235 0
-95 -235 0
-91 -241 0
-92 -241 0
-97 -103 0
-96 -103 0
-98 -109 0
-96 -108 0
-99 -112 0
-100 -115 0
-99 -122 0
-96 -125 0
-100 -139 0
-99 -138 0
-99 -141 0
-99 -142 0
-99 -158 0
-97 -160 0
-99 -161 0
-98 -162 0
-98 -166 0
-100 -167 0
-96 -189 0
-100 -189 0
-97 -211 0
-96 -214 0
-98 -216 0
-96 -216 0
-96 -226 0
-98 -229 0
-99 -232 0
-96 -232 0
-99 -245 0
-96 -244 0
-99 -249 0
-99 -246 0
-101 -108 0
-101 -110 0
-104 -113 0
-102 -112 0
-102 -130 0
-105 -129 0
-103 -140 0
-103 -139 0
-102 -142 0
-104 -145 0
-104 -154 0
-101 -151 0
-105 -176 0
-105 -180 0
-101 -194 0
-102 -193 0
-102 -215 0
-102 -214 0
-103 -227 0
-105 -229 0
-104 -238 0
-101 -238 0
-110 -119 0
-107 -118 0
-107 -132 0
-110 -134 0
-107 -146 0
-109 -147 0
-109 -171 0
-106 -171 0
-107 -177 0
-106 -180 0
-106 -189 0
-108 -188 0
-110 -195 0
-107 -195 0
-108 -200 0
-110 -199 0
-106 -227 0
-106 -230 0
-106 -232 0
-110 -233 0
-111 -122 0
-113 -123 0
-114 -127 0
-112 -127 0
-114 -146 0
-114 -150 0
-113 -174 0
-111 -173 0
-112 -176 0
-112 -178 0
-112 -187 0
-112 -186 0
-114 -207 0
-111 -206 0
-112 -226 0
-111 -230 0
-111 -232 0
-111 -235 0
-115 -243 0
-112 -243 0
-119 -135 0
-116 -135 0
-120 -144 0
-118 -145 0
-119 -179 0
-116 -180 0
-120 -186 0
-117 -186 0
-117 -195 0
-119 -191 0
-120 -201 0
-120 -202 0
-117 -208 0
-116 -207 0
-119 -211 0
-118 -214 0
-116 -216 0
-119 -218 0
-120 -225 0
-119 -225 0
-116 -229 0
-120 -226 0
-120 -240 0
-116 -236 0
-120 -250 0
-117 -250 0
-124 -127 0
-122 -129 0
-123 -132 0
-121 -133 0
-123 -142 0
-124 -142 0
-124 -149 0
-123 -148 0
-124 -154 0
-123 -154 0
-123 -164 0
-123 -165 0
-121 -180 0
-124 -176 0
-122 -182 0
-124 -185 0
-122 -188 0
-125 -187 0
-125 -195 0
-123 -192 0
-124 -197 0
-124 -199 0
-123 -204 0
-122 -201 0
-124 -213 0
-122 -212 0
-125 -221 0
-121 -221 0
-121 -246 0
-123 -246 0
-130 -131 0
-127 -133 0
-130 -137 0
-127 -140 0
-126 -149 0
-126 -147 0
-128 -156 0
-130 -159 0
-127 -162 0
-129 -164 0
-128 -178 0
-126 -180 0
-126 -185 0
-127 -183 0
-130 -186 0
-127 -189 0
-128 -195 0
-127 -194 0
-126 -204 0
-126 -202 0
-129 -212 0
-130 -211 0
-127 -221 0
-130 -221 0
-129 -235 0
-129 -231 0
-132 -144 0
-134 -141 0
-131 -150 0
-132 -147 0
-134 -154 0
-135 -153 0
-131 -158 0
-131 -157 0
-135 -171 0
-132 -175 0
-133 -179 0
-134 -177 0
-133 -184 0
-134 -185 0
-134 -197 0
-135 -197 0
-131 -225 0
-133 -223 0
-133 -229 0
-133 -228 0
-131 -231 0
-135 -231 0
-131 -240 0
-133 -239 0
-138 -143 0
-137 -143 0
-138 -146 0
-140 -149 0
-136 -153 0
-138 -151 0
-137 -158 0
-136 -158 0
-136 -163 0
-137 -161 0
-136 -166 0
-138 -167 0
-139 -188 0
-140 -186 0
-136 -192 0
-138 -192 0
-138 -200 0
-138 -196 0
-136 -201 0
-138 -205 0
-137 -220 0
-140 -220 0
-140 -227 0
-136 -229 0
-139 -240 0
-139 -238 0
-139 -242 0
-140 -242 0
-138 -248 0
-137 -249 0
-145 -147 0
-141 -146 0
-145 -157 0
-145 -158 0
-145 -164 0
-145 -163 0
-144 -166 0
-141 -168 0
-141 -176 0
-142 -179 0
-143 -185 0
-142 -182 0
-144 -186 0
-141 -186 0
-141 -209 0
-145 -209 0
-143 -217 0
-141 -218 0
-142 -226 0
-144 -229 0
-141 -232 0
-143 -232 0
-145 -250 0
-144 -246 0
-146 -167 0
-146 -170 0
-150 -183 0
-150 -184 0
-149 -186 0
-150 -186 0
-150 -208 0
-150 -209 0
-146 -211 0
-147 -214 0
-148 -228 0
-149 -229 0
-150 -232 0
-148 -235 0
-147 -237 0
-146 -240 0
-146 -246 0
-147 -248 0
-154 -166 0
-154 -169 0
-153 -174 0
-152 -174 0
-151 -177 0
-155 -180 0
-153 -185 0
-151 -185 0
-153 -186 0
-152 -188 0
-155 -205 0
-151 -203 0
-152 -212 0
-153 -212 0
-153 -227 0
-155 -229 0
-158 -162 0
-159 -164 0
-159 -167 0
-160 -167 0
-157 -179 0
-157 -176 0
-160 -191 0
-159 -192 0
-157 -207 0
-157 -209 0
-160 -215 0
-157 -212 0
-162 -167 0
-165 -166 0
-162 -173 0
-161 -172 0
-161 -185 0
-161 -184 0
-161 -189 0
-162 -187 0
-164 -205 0
-161 -205 0
-163 -214 0
-161 -215 0
-165 -220 0
-164 -217 0
-164 -224 0
-161 -224 0
-161 -228 0
-165 -230 0
-164 -241 0
-164 -244 0
-166 -173 0
-166 -172 0
-168 -178 0
-166 -176 0
-168 -196 0
-169 -196 0
-167 -201 0
-170 -203 0
-166 -211 0
-167 -215 0
-166 -238 0
-167 -238 0
-168 -248 0
-167 -247 0
-171 -201 0
-172 -203 0
-174 -212 0
-171 -213 0
-171 -219 0
-174 -219 0
-175 -228 0
-173 -228 0
-173 -238 0
-171 -239 0
-173 -247 0
-172 -246 0
-177 -181 0
-178 -184 0
-178 -186 0
-179 -188 0
-180 -233 0
-180 -231 0
-178 -241 0
-176 -245 0
-185 -192 0
-185 -191 0
-185 -201 0
-182 -204 0
-183 -213 0
-185 -212 0
-184 -220 0
-181 -218 0
-181 -239 0
-181 -240 0
-181 -243 0
-185 -244 0
-184 -250 0
-182 -248 0
-189 -200 0
-189 -197 0
-190 -207 0
-190 -210 0
-190 -219 0
-190 -220 0
-186 -232 0
-190 -235 0
-190 -238 0
-189 -240 0
-190 -248 0
-190 -250 0
-195 -207 0
-194 -207 0
-192 -216 0
-191 -218 0
-192 -222 0
-194 -222 0
-192 -234 0
-191 -231 0
-195 -245 0
-195 -242 0
-200 -202 0
-196 -201 0
-199 -213 0
-196 -211 0
-198 -219 0
-196 -218 0
-197 -225 0
-196 -223 0
-196 -240 0
-198 -236 0
-199 -248 0
-200 -246 0
-202 -224 0
-205 -222 0
-205 -238 0
-205 -240 0
-204 -242 0
-204 -241 0
-205 -246 0
-204 -249 0
-207 -213 0
-207 -212 0
-208 -227 0
-207 -227 0
-215 -225 0
-214 -224 0
-211 -232 0
-214 -234 0
-214 -244 0
-213 -241 0
-211 -247 0
-214 -246 0
-217 -223 0
-218 -223 0
-216 -232 0
-219 -233 0
-219 -239 0
-218 -236 0
-218 -241 0
-217 -245 0
-222 -227 0
-224 -227 0
-227 -231 0
-230 -235 0
-229 -239 0
-226 -238 0
-229 -249 0
-226 -246 0
-234 -239 0
-231 -240 0
-239 -245 0
-238 -244 0
-238 -250 0
-240 -248 0
-244 -246 0
-243 -248 0
